NAME : rnd1_20.tsp
TYPE : TSP
DIMENSION : 20
EDGE_WEIGHT_TYPE : EUC_2D
NODE_COORD_SECTION
1 512 665
2 386 236
3 960 282
4 355 204
5 481 754
6 523 309
7 677 247
8 201 101
9 272 762
10 938 53
11 122 797
12 287 437
13 979 648
14 91 363
15 325 477
16 10 840
17 955 416
18 0 615
19 391 389
20 895 124
